rcpsp/heur_output_log_0/heurj120.txt
encoding rcpsp/j120.sm/j12024_6.sm nv: 1005176 nc: 2205013 enctime: 29.78
encoding rcpsp/j120.sm/j12024_6.sm nv: 154044 nc: 333726 enctime: 1.60
c File: j12024_6.smnaiveor1000.wcnf
c optimal
c final solution cost: 95
c CPU time: 5.800542
s OPTIMUM FOUND

c File: j12024_6.smor1000.wcnf
c optimal
c final solution cost: 95
c CPU time: 0.498492
s OPTIMUM FOUND


rcpsp/heur_output_log_0/heurj120.txt
encoding rcpsp/j120.sm/j12024_7.sm nv: 1086255 nc: 2438531 enctime: 33.85
encoding rcpsp/j120.sm/j12024_7.sm nv: 180285 nc: 399949 enctime: 2.94
c File: j12024_7.smnaiveor1000.wcnf
c optimal
c final solution cost: 112
c CPU time: 8.139107
s OPTIMUM FOUND

c File: j12024_7.smor1000.wcnf
c optimal
c final solution cost: 112
c CPU time: 0.670294
s OPTIMUM FOUND


rcpsp/heur_output_log_0/heurj120.txt
encoding rcpsp/j120.sm/j12024_8.sm nv: 775012 nc: 1730433 enctime: 24.85
encoding rcpsp/j120.sm/j12024_8.sm nv: 136840 nc: 301728 enctime: 1.51
c File: j12024_8.smnaiveor1000.wcnf
c optimal
c final solution cost: 104
c CPU time: 5.962618
s OPTIMUM FOUND

c File: j12024_8.smor1000.wcnf
c optimal
c final solution cost: 104
c CPU time: 0.629468
s OPTIMUM FOUND


rcpsp/heur_output_log_0/heurj120.txt
encoding rcpsp/j120.sm/j12024_9.sm nv: 775257 nc: 1716527 enctime: 23.49
encoding rcpsp/j120.sm/j12024_9.sm nv: 109478 nc: 238529 enctime: 1.89
c File: j12024_9.smnaiveor1000.wcnf
c optimal
c final solution cost: 82
c CPU time: 7.696517
s OPTIMUM FOUND

c File: j12024_9.smor1000.wcnf
c optimal
c final solution cost: 82
c CPU time: 0.388823
s OPTIMUM FOUND


rcpsp/heur_output_log_0/heurj120.txt
encoding rcpsp/j120.sm/j1202_4.sm nv: 714051 nc: 1628882 enctime: 22.57
encoding rcpsp/j120.sm/j1202_4.sm nv: 113085 nc: 253970 enctime: 1.84
c File: j1202_4.smnaiveor1000.wcnf
c optimal
c final solution cost: 95
c CPU time: 9.228392
s OPTIMUM FOUND

c File: j1202_4.smor1000.wcnf
c optimal
c final solution cost: 95
c CPU time: 0.647032
s OPTIMUM FOUND


rcpsp/heur_output_log_0/heurj120.txt
encoding rcpsp/j120.sm/j12025_10.sm nv: 976239 nc: 2132239 enctime: 28.00
encoding rcpsp/j120.sm/j12025_10.sm nv: 147915 nc: 319183 enctime: 1.54
c File: j12025_10.smnaiveor1000.wcnf
c optimal
c final solution cost: 92
c CPU time: 6.340621
s OPTIMUM FOUND

c File: j12025_10.smor1000.wcnf
c optimal
c final solution cost: 92
c CPU time: 0.405379
s OPTIMUM FOUND


rcpsp/heur_output_log_0/heurj120.txt
encoding rcpsp/j120.sm/j12025_1.sm nv: 1047510 nc: 2320852 enctime: 31.30
encoding rcpsp/j120.sm/j12025_1.sm nv: 137505 nc: 299993 enctime: 2.27
c File: j12025_1.smnaiveor1000.wcnf
c optimal
c final solution cost: 82
c CPU time: 7.655364
s OPTIMUM FOUND

c File: j12025_1.smor1000.wcnf
c optimal
c final solution cost: 82
c CPU time: 0.395761
s OPTIMUM FOUND


rcpsp/heur_output_log_0/heurj120.txt
encoding rcpsp/j120.sm/j12025_2.sm nv: 999130 nc: 2228921 enctime: 31.32
encoding rcpsp/j120.sm/j12025_2.sm nv: 165545 nc: 364877 enctime: 1.81
c File: j12025_2.smnaiveor1000.wcnf
c optimal
c final solution cost: 108
c CPU time: 6.725974
s OPTIMUM FOUND

c File: j12025_2.smor1000.wcnf
c optimal
c final solution cost: 108
c CPU time: 0.461408
s OPTIMUM FOUND


rcpsp/heur_output_log_0/heurj120.txt
encoding rcpsp/j120.sm/j12025_3.sm nv: 1154440 nc: 2514595 enctime: 32.83
encoding rcpsp/j120.sm/j12025_3.sm nv: 175336 nc: 377599 enctime: 1.82
c File: j12025_3.smnaiveor1000.wcnf
c optimal
c final solution cost: 100
c CPU time: 8.020339
s OPTIMUM FOUND

c File: j12025_3.smor1000.wcnf
c optimal
c final solution cost: 100
c CPU time: 0.426077
s OPTIMUM FOUND


rcpsp/heur_output_log_0/heurj120.txt
encoding rcpsp/j120.sm/j12025_4.sm nv: 980672 nc: 2219028 enctime: 32.33
encoding rcpsp/j120.sm/j12025_4.sm nv: 164374 nc: 367268 enctime: 1.79
c File: j12025_4.smnaiveor1000.wcnf
c optimal
c final solution cost: 117
c CPU time: 6.270499
s OPTIMUM FOUND

c File: j12025_4.smor1000.wcnf
c optimal
c final solution cost: 117
c CPU time: 0.448488
s OPTIMUM FOUND


rcpsp/heur_output_log_0/heurj120.txt
encoding rcpsp/j120.sm/j12025_5.sm nv: 1030176 nc: 2260416 enctime: 29.88
encoding rcpsp/j120.sm/j12025_5.sm nv: 158368 nc: 343328 enctime: 2.47
c File: j12025_5.smnaiveor1000.wcnf
c optimal
c final solution cost: 100
c CPU time: 6.184055
s OPTIMUM FOUND

c File: j12025_5.smor1000.wcnf
c optimal
c final solution cost: 100
c CPU time: 0.397405
s OPTIMUM FOUND


rcpsp/heur_output_log_0/heurj120.txt
encoding rcpsp/j120.sm/j12025_6.sm nv: 926826 nc: 2078283 enctime: 29.63
encoding rcpsp/j120.sm/j12025_6.sm nv: 139434 nc: 308235 enctime: 2.38
c File: j12025_6.smnaiveor1000.wcnf
c optimal
c final solution cost: 92
c CPU time: 7.900745
s OPTIMUM FOUND

c File: j12025_6.smor1000.wcnf
c optimal
c final solution cost: 92
c CPU time: 0.624115
s OPTIMUM FOUND


rcpsp/heur_output_log_0/heurj120.txt
encoding rcpsp/j120.sm/j12025_7.sm nv: 959108 nc: 2164870 enctime: 31.51
encoding rcpsp/j120.sm/j12025_7.sm nv: 134054 nc: 298051 enctime: 1.42
c File: j12025_7.smnaiveor1000.wcnf
c optimal
c final solution cost: 92
c CPU time: 9.786878
s OPTIMUM FOUND

c File: j12025_7.smor1000.wcnf
c optimal
c final solution cost: 92
c CPU time: 0.531744
s OPTIMUM FOUND


rcpsp/heur_output_log_0/heurj120.txt
encoding rcpsp/j120.sm/j12025_8.sm nv: 981650 nc: 2182217 enctime: 30.43
encoding rcpsp/j120.sm/j12025_8.sm nv: 118900 nc: 259772 enctime: 1.20
c File: j12025_8.smnaiveor1000.wcnf
c optimal
c final solution cost: 80
c CPU time: 8.238055
s OPTIMUM FOUND

c File: j12025_8.smor1000.wcnf
c optimal
c final solution cost: 80
c CPU time: 0.363823
s OPTIMUM FOUND


rcpsp/heur_output_log_0/heurj120.txt
encoding rcpsp/j120.sm/j12025_9.sm nv: 963168 nc: 2103713 enctime: 27.71
encoding rcpsp/j120.sm/j12025_9.sm nv: 153924 nc: 332297 enctime: 1.61
c File: j12025_9.smnaiveor1000.wcnf
c optimal
c final solution cost: 94
c CPU time: 7.666766
s OPTIMUM FOUND

c File: j12025_9.smor1000.wcnf
c optimal
c final solution cost: 94
c CPU time: 0.486698
s OPTIMUM FOUND


rcpsp/heur_output_log_0/heurj120.txt
encoding rcpsp/j120.sm/j1202_5.sm nv: 674966 nc: 1587621 enctime: 24.10
encoding rcpsp/j120.sm/j1202_5.sm nv: 115073 nc: 266343 enctime: 1.25
c File: j1202_5.smnaiveor1000.wcnf
c optimal
c final solution cost: 103
c CPU time: 12.714943
s OPTIMUM FOUND

c File: j1202_5.smor1000.wcnf
c optimal
c final solution cost: 103
c CPU time: 2.947000
s OPTIMUM FOUND


rcpsp/heur_output_log_0/heurj120.txt
encoding rcpsp/j120.sm/j12026_10.sm nv: 1320744 nc: 2881652 enctime: 35.81
encoding rcpsp/j120.sm/j12026_10.sm nv: 457780 nc: 995358 enctime: 6.77
c File: j12026_10.smnaiveor1000.wcnf
c timeout
c final solution cost: 203
c CPU time: 65.706210
s UNKNOWN

c File: j12026_10.smor1000.wcnf
c timeout
c final solution cost: 200
c CPU time: 61.068351
s UNKNOWN


rcpsp/heur_output_log_0/heurj120.txt
encoding rcpsp/j120.sm/j12026_1.sm nv: 1435848 nc: 3126572 enctime: 37.58
encoding rcpsp/j120.sm/j12026_1.sm nv: 439419 nc: 953072 enctime: 6.22
c File: j12026_1.smnaiveor1000.wcnf
c timeout
c final solution cost: 253
c CPU time: 66.073275
s UNKNOWN

c File: j12026_1.smor1000.wcnf
c timeout
c final solution cost: 185
c CPU time: 60.977505
s UNKNOWN


rcpsp/heur_output_log_0/heurj120.txt
encoding rcpsp/j120.sm/j12026_2.sm nv: 1302174 nc: 2824736 enctime: 33.78
encoding rcpsp/j120.sm/j12026_2.sm nv: 396400 nc: 856437 enctime: 5.73
c File: j12026_2.smnaiveor1000.wcnf
c timeout
c final solution cost: 188
c CPU time: 65.416960
s UNKNOWN

c File: j12026_2.smor1000.wcnf
c timeout
c final solution cost: 184
c CPU time: 60.879483
s UNKNOWN


rcpsp/heur_output_log_0/heurj120.txt
encoding rcpsp/j120.sm/j12026_3.sm nv: 1474880 nc: 3214501 enctime: 39.45
encoding rcpsp/j120.sm/j12026_3.sm nv: 448330 nc: 973241 enctime: 7.66
c File: j12026_3.smnaiveor1000.wcnf
c timeout
c final solution cost: 259
c CPU time: 66.215680
s UNKNOWN

c File: j12026_3.smor1000.wcnf
c timeout
c final solution cost: 183
c CPU time: 60.998023
s UNKNOWN


rcpsp/heur_output_log_0/heurj120.txt
encoding rcpsp/j120.sm/j12026_4.sm nv: 1378628 nc: 2978239 enctime: 35.11
encoding rcpsp/j120.sm/j12026_4.sm nv: 424676 nc: 913927 enctime: 5.99
c File: j12026_4.smnaiveor1000.wcnf
c timeout
c final solution cost: 188
c CPU time: 65.739097
s UNKNOWN

c File: j12026_4.smor1000.wcnf
c timeout
c final solution cost: 185
c CPU time: 60.930341
s UNKNOWN


rcpsp/heur_output_log_0/heurj120.txt
encoding rcpsp/j120.sm/j12026_5.sm nv: 1274139 nc: 2713534 enctime: 30.02
encoding rcpsp/j120.sm/j12026_5.sm nv: 401470 nc: 852143 enctime: 6.47
c File: j12026_5.smnaiveor1000.wcnf
c timeout
c final solution cost: 272
c CPU time: 64.782466
s UNKNOWN

c File: j12026_5.smor1000.wcnf
c timeout
c final solution cost: 167
c CPU time: 60.834575
s UNKNOWN


rcpsp/heur_output_log_0/heurj120.txt
encoding rcpsp/j120.sm/j12026_6.sm nv: 1352025 nc: 2941232 enctime: 36.01
encoding rcpsp/j120.sm/j12026_6.sm nv: 460690 nc: 998807 enctime: 6.63
c File: j12026_6.smnaiveor1000.wcnf
c timeout
c final solution cost: 202
c CPU time: 65.719087
s UNKNOWN

c File: j12026_6.smor1000.wcnf
c timeout
c final solution cost: 203
c CPU time: 61.062602
s UNKNOWN


rcpsp/heur_output_log_0/heurj120.txt
encoding rcpsp/j120.sm/j12026_7.sm nv: 1386480 nc: 2970441 enctime: 33.75
encoding rcpsp/j120.sm/j12026_7.sm nv: 442540 nc: 944867 enctime: 7.04
c File: j12026_7.smnaiveor1000.wcnf
c timeout
c final solution cost: 169
c CPU time: 65.401135
s UNKNOWN

c File: j12026_7.smor1000.wcnf
c timeout
c final solution cost: 168
c CPU time: 60.933711
s UNKNOWN


rcpsp/heur_output_log_0/heurj120.txt
encoding rcpsp/j120.sm/j12026_8.sm nv: 1264868 nc: 2738659 enctime: 32.52
encoding rcpsp/j120.sm/j12026_8.sm nv: 422928 nc: 912449 enctime: 6.99
c File: j12026_8.smnaiveor1000.wcnf
c timeout
c final solution cost: 374
c CPU time: 65.368982
s UNKNOWN

c File: j12026_8.smor1000.wcnf
c timeout
c final solution cost: 188
c CPU time: 60.968365
s UNKNOWN


rcpsp/heur_output_log_0/heurj120.txt
encoding rcpsp/j120.sm/j12026_9.sm nv: 1572165 nc: 3442760 enctime: 42.62
encoding rcpsp/j120.sm/j12026_9.sm nv: 451329 nc: 984152 enctime: 6.45
c File: j12026_9.smnaiveor1000.wcnf
c timeout
c final solution cost: 214
c CPU time: 66.940609
s UNKNOWN

c File: j12026_9.smor1000.wcnf
c timeout
c final solution cost: 184
c CPU time: 60.988813
s UNKNOWN


rcpsp/heur_output_log_0/heurj120.txt
encoding rcpsp/j120.sm/j1202_6.sm nv: 746478 nc: 1704182 enctime: 23.19
encoding rcpsp/j120.sm/j1202_6.sm nv: 116706 nc: 262170 enctime: 1.94
c File: j1202_6.smnaiveor1000.wcnf
c optimal
c final solution cost: 92
c CPU time: 13.580718
s OPTIMUM FOUND

c File: j1202_6.smor1000.wcnf
c optimal
c final solution cost: 92
c CPU time: 0.906141
s OPTIMUM FOUND


rcpsp/heur_output_log_0/heurj120.txt
encoding rcpsp/j120.sm/j12027_10.sm nv: 2317938 nc: 4904788 enctime: 53.77
encoding rcpsp/j120.sm/j12027_10.sm nv: 445634 nc: 938260 enctime: 6.12
c File: j12027_10.smnaiveor1000.wcnf
c timeout
c final solution cost: 122
c CPU time: 67.543163
s UNKNOWN

c File: j12027_10.smor1000.wcnf
c timeout
c final solution cost: 124
c CPU time: 60.790277
s UNKNOWN


rcpsp/heur_output_log_0/heurj120.txt
encoding rcpsp/j120.sm/j12027_1.sm nv: 1925955 nc: 4029510 enctime: 45.22
encoding rcpsp/j120.sm/j12027_1.sm nv: 388224 nc: 808539 enctime: 5.50
c File: j12027_1.smnaiveor1000.wcnf
c timeout
c final solution cost: 159
c CPU time: 66.347529
s UNKNOWN

c File: j12027_1.smor1000.wcnf
c timeout
c final solution cost: 115
c CPU time: 60.699154
s UNKNOWN


rcpsp/heur_output_log_0/heurj120.txt
encoding rcpsp/j120.sm/j12027_2.sm nv: 1704380 nc: 3582097 enctime: 38.72
encoding rcpsp/j120.sm/j12027_2.sm nv: 401354 nc: 840007 enctime: 5.36
c File: j12027_2.smnaiveor1000.wcnf
c timeout
c final solution cost: 126
c CPU time: 65.690349
s UNKNOWN

c File: j12027_2.smor1000.wcnf
c timeout
c final solution cost: 125
c CPU time: 60.743701
s UNKNOWN


rcpsp/heur_output_log_0/heurj120.txt
encoding rcpsp/j120.sm/j12027_3.sm nv: 1745920 nc: 3725933 enctime: 44.31
encoding rcpsp/j120.sm/j12027_3.sm nv: 417280 nc: 886484 enctime: 5.92
c File: j12027_3.smnaiveor1000.wcnf
c timeout
c final solution cost: 161
c CPU time: 66.476195
s UNKNOWN

c File: j12027_3.smor1000.wcnf
c timeout
c final solution cost: 158
c CPU time: 60.818310
s UNKNOWN


rcpsp/heur_output_log_0/heurj120.txt
encoding rcpsp/j120.sm/j12027_4.sm nv: 2033415 nc: 4270278 enctime: 46.42
encoding rcpsp/j120.sm/j12027_4.sm nv: 389970 nc: 815061 enctime: 5.45
c File: j12027_4.smnaiveor1000.wcnf
c timeout
c final solution cost: 115
c CPU time: 66.535780
s UNKNOWN

c File: j12027_4.smor1000.wcnf
c timeout
c final solution cost: 115
c CPU time: 60.689877
s UNKNOWN


rcpsp/heur_output_log_0/heurj120.txt
encoding rcpsp/j120.sm/j12027_5.sm nv: 1762467 nc: 3700363 enctime: 40.00
encoding rcpsp/j120.sm/j12027_5.sm nv: 373428 nc: 780386 enctime: 5.55
c File: j12027_5.smnaiveor1000.wcnf
c timeout
c final solution cost: 183
c CPU time: 65.845610
s UNKNOWN

c File: j12027_5.smor1000.wcnf
c timeout
c final solution cost: 117
c CPU time: 60.666392
s UNKNOWN


rcpsp/heur_output_log_0/heurj120.txt
encoding rcpsp/j120.sm/j12027_6.sm nv: 1703363 nc: 3632372 enctime: 42.04
encoding rcpsp/j120.sm/j12027_6.sm nv: 435332 nc: 924467 enctime: 7.61
c File: j12027_6.smnaiveor1000.wcnf
c timeout
c final solution cost: 338
c CPU time: 66.440321
s UNKNOWN

c File: j12027_6.smor1000.wcnf
c timeout
c final solution cost: 154
c CPU time: 60.869101
s UNKNOWN


rcpsp/heur_output_log_0/heurj120.txt
encoding rcpsp/j120.sm/j12027_7.sm nv: 1765678 nc: 3724576 enctime: 41.41
encoding rcpsp/j120.sm/j12027_7.sm nv: 395424 nc: 830376 enctime: 5.43
c File: j12027_7.smnaiveor1000.wcnf
c timeout
c final solution cost: 133
c CPU time: 66.019099
s UNKNOWN

c File: j12027_7.smor1000.wcnf
c timeout
c final solution cost: 127
c CPU time: 60.741645
s UNKNOWN


rcpsp/heur_output_log_0/heurj120.txt
encoding rcpsp/j120.sm/j12027_8.sm nv: 1950768 nc: 4166920 enctime: 48.73
encoding rcpsp/j120.sm/j12027_8.sm nv: 456912 nc: 971728 enctime: 6.58
c File: j12027_8.smnaiveor1000.wcnf
c timeout
c final solution cost: 176
c CPU time: 67.581882
s UNKNOWN

c File: j12027_8.smor1000.wcnf
c timeout
c final solution cost: 151
c CPU time: 60.893206
s UNKNOWN


rcpsp/heur_output_log_0/heurj120.txt
encoding rcpsp/j120.sm/j12027_9.sm nv: 1768795 nc: 3767925 enctime: 44.47
encoding rcpsp/j120.sm/j12027_9.sm nv: 390750 nc: 828272 enctime: 5.59
c File: j12027_9.smnaiveor1000.wcnf
c timeout
c final solution cost: 142
c CPU time: 66.327394
s UNKNOWN

c File: j12027_9.smor1000.wcnf
c timeout
c final solution cost: 133
c CPU time: 60.748672
s UNKNOWN


rcpsp/heur_output_log_0/heurj120.txt
encoding rcpsp/j120.sm/j1202_7.sm nv: 650715 nc: 1454815 enctime: 20.39
encoding rcpsp/j120.sm/j1202_7.sm nv: 116085 nc: 256039 enctime: 1.87
c File: j1202_7.smnaiveor1000.wcnf
c optimal
c final solution cost: 90
c CPU time: 7.648687
s OPTIMUM FOUND

c File: j1202_7.smor1000.wcnf
c optimal
c final solution cost: 90
c CPU time: 1.021923
s OPTIMUM FOUND


rcpsp/heur_output_log_0/heurj120.txt
encoding rcpsp/j120.sm/j12028_10.sm nv: 2141464 nc: 4524638 enctime: 51.24
encoding rcpsp/j120.sm/j12028_10.sm nv: 426452 nc: 896728 enctime: 6.25
c File: j12028_10.smnaiveor1000.wcnf
c timeout
c final solution cost: 119
c CPU time: 67.213267
s UNKNOWN

c File: j12028_10.smor1000.wcnf
c timeout
c final solution cost: 119
c CPU time: 60.741845
s UNKNOWN


rcpsp/heur_output_log_0/heurj120.txt
encoding rcpsp/j120.sm/j12028_1.sm nv: 2150982 nc: 4492272 enctime: 47.65
encoding rcpsp/j120.sm/j12028_1.sm nv: 388692 nc: 807727 enctime: 5.64
c File: j12028_1.smnaiveor1000.wcnf
c timeout
c final solution cost: 114
c CPU time: 66.766311
s UNKNOWN

c File: j12028_1.smor1000.wcnf
c timeout
c final solution cost: 112
c CPU time: 60.681285
s UNKNOWN


